122	0

0	3	2	3	4
8	5	7	9	10	16	18
8	5	7	9	10	16	18
4	3	5	6	8
10	5	13	15	17	19	22
2	5	7	9	10	16	18
4	4	11	12	14	21
10	5	13	15	17	19	22
4	4	11	12	14	21
10	5	28	29	38	39	44
2	5	13	15	17	19	22
2	5	13	15	17	19	22
2	8	20	23	24	25	26	27	29	38
5	8	24	25	26	28	29	38	39	44
3	8	24	25	26	28	29	38	39	44
7	8	20	23	24	25	26	27	29	38
9	6	31	32	35	36	37	43
8	8	20	23	24	25	26	27	29	38
3	8	24	25	26	28	29	38	39	44
5	9	31	32	34	35	36	37	42	43	48
6	5	28	29	38	39	44
5	3	28	39	44
3	3	28	39	44
5	8	31	32	34	35	36	37	42	43
5	8	31	32	34	35	36	37	42	43
6	6	31	32	35	36	37	43
7	6	31	32	35	36	37	43
1	3	30	33	48
8	5	45	49	51	52	53
2	8	31	32	34	35	36	37	42	43
7	12	56	57	58	59	61	62	63	64	65	67	68	73
5	12	46	55	56	57	59	60	62	63	64	65	67	73
7	5	46	47	50	54	55
2	2	40	41
9	6	56	58	61	65	67	68
9	6	56	58	61	65	67	68
1	2	40	41
10	12	46	55	56	57	59	60	62	63	64	65	67	73
7	5	45	49	51	52	53
6	12	56	57	58	59	61	62	63	64	65	67	68	73
2	5	45	49	51	52	53
4	5	45	49	51	52	53
3	5	45	49	51	52	53
7	5	45	49	51	52	53
1	5	46	47	50	54	55
10	7	69	70	72	74	80	83	91
2	13	56	57	58	59	60	61	62	63	64	65	67	68	73
10	10	56	57	58	59	61	63	65	67	68	73
7	3	58	61	68
7	2	58	61
5	10	56	57	58	59	61	63	65	67	68	73
6	6	56	58	61	65	67	68
5	10	56	57	58	59	61	63	65	67	68	73
5	6	56	58	61	65	67	68
5	3	58	61	68
7	5	69	70	74	83	91
4	11	66	69	70	71	72	74	77	78	80	83	91
1	11	66	69	70	71	72	74	77	78	80	83	91
10	9	75	76	79	82	84	85	86	93	95
8	9	66	69	70	72	74	78	80	83	91
3	9	66	69	70	72	74	78	80	83	91
7	9	66	69	70	72	74	78	80	83	91
8	5	69	70	74	83	91
8	7	69	70	72	74	80	83	91
7	5	69	70	74	83	91
6	10	81	84	87	88	89	90	92	94	100	101
7	5	69	70	74	83	91
7	10	75	76	79	82	84	85	86	91	93	95
3	6	81	82	84	85	93	101
2	9	75	76	79	82	84	85	86	93	95
7	6	81	82	84	85	93	101
4	6	81	82	84	85	93	101
10	9	75	76	79	82	84	85	86	93	95
8	8	88	90	94	96	98	100	103	107
5	9	88	90	92	94	96	98	100	103	107
4	11	87	88	89	90	92	94	96	98	100	103	107
7	6	81	82	84	85	93	101
10	8	88	90	94	96	98	100	103	107
3	12	81	87	88	89	90	92	94	96	100	101	103	107
6	12	81	87	88	89	90	92	94	96	100	101	103	107
7	8	97	98	99	102	104	105	109	112
5	8	88	90	94	96	98	100	103	107
8	8	88	90	94	96	98	100	103	107
5	8	96	97	98	99	102	103	104	107
3	11	87	88	89	90	92	94	96	98	100	103	107
4	11	87	88	89	90	92	94	96	98	100	103	107
10	7	105	106	108	109	110	111	112
10	4	106	108	110	111
10	7	105	106	108	109	110	111	112
5	7	97	99	102	104	105	109	112
9	6	97	98	99	102	103	104
7	4	102	105	109	112
10	7	97	99	102	104	105	109	112
8	7	105	106	108	109	110	111	112
7	8	96	97	98	99	102	103	104	107
7	7	105	106	108	109	110	111	112
5	4	106	108	110	111
8	4	110	113	114	115
10	3	113	114	115
8	7	105	106	108	109	110	111	112
9	4	102	105	109	112
4	4	106	108	110	111
6	7	105	106	108	109	110	111	112
9	3	113	114	115
8	2	114	115
9	2	117	118
10	4	110	113	114	115
5	3	113	114	115
10	3	117	118	119
6	3	117	118	119
5	3	113	114	115
6	3	113	114	115
7	1	117
6	1	117
1	2	116	119
4	2	117	118
5	2	120	121
9	1	120
5	2	120	121
3	1	122
4	1	122
0	0
